Route #1: 78 81 83 127 129 130 93 97
Route #2: 264 384 424 543 583 742 782 821 861 860 899 859 818 858 897 856 816 737 697 536 496 455 415 334 294 254
Route #3: 277 437 477 556 596 637 678 718 879 919 918 917 877 876 836 795 635 595 514 474 434 354 274
Route #4: 559 599 680 800 840 801 841 842 883 843 844 804 805 765 806 846 847 887 888 889 849 810 770 689 688 648 567 527 526
Route #5: 177 217 378 458 498 579 619 580 540 501 502 462 301 261 182 142
Route #6: 204 325 365 405 445 484 563 603 642 602 561 521 401 361 360 320 239
Route #7: 585 625 704 744 863 903 864 825 826 866 907 867 828 868 909 869 830 790 831 871 872 913 874 834 713 673 672 632 591 471
Route #8: 249 409 449 530 570 571 691 731 851 812 772 853 893 854 815 775 694 654 613 573 532 492 371 331
Route #9: 25 24 16
Route #10: 152 231 351 391 510 550 589 629 588 548 587 506 466 387 347 307 227
Cost: 16064910
